NAME : weird25
TYPE : TSP
DIMENSION : 20
EDGE_WEIGHT_TYPE : EUC_2D
NODE_COORD_SECTION
1 10 85
2 23 42
3 78 66
4 5 10
5 90 91
6 47 38
7 62 8
8 33 70
9 14 19
10 59 98
11 81 27
12 12 56
13 66 44
14 27 84
15 50 11
16 31 95
17 71 54
18 6 35
19 99 13
20 42 64
EOF
